(declare-const X String)
; /[a-z\d\x2f\x2b\x3d]{100,300}/Pi
(assert (str.in_re X (re.++ (str.to_re "/") ((_ re.loop 100 300) (re.union (re.range "a" "z") (re.range "0" "9") (str.to_re "/") (str.to_re "+") (str.to_re "="))) (str.to_re "/Pi\u{a}"))))
; /filename=[^\n]*\x2ejif/i
(assert (not (str.in_re X (re.++ (str.to_re "/filename=") (re.* (re.comp (str.to_re "\u{a}"))) (str.to_re ".jif/i\u{a}")))))
; User-Agent\x3awww\x2Eadoptim\x2Ecom
(assert (str.in_re X (str.to_re "User-Agent:www.adoptim.com\u{a}")))
; tv\x2E180solutions\x2EcomGirlFriendHost\x3A
(assert (str.in_re X (str.to_re "tv.180solutions.comGirlFriendHost:\u{a}")))
; (\d{1,3},(\d{3},)*\d{3}(\.\d{1,3})?|\d{1,3}(\.\d{3})?)$
(assert (not (str.in_re X (re.++ (re.union (re.++ ((_ re.loop 1 3) (re.range "0" "9")) (str.to_re ",") (re.* (re.++ ((_ re.loop 3 3) (re.range "0" "9")) (str.to_re ","))) ((_ re.loop 3 3) (re.range "0" "9")) (re.opt (re.++ (str.to_re ".") ((_ re.loop 1 3) (re.range "0" "9"))))) (re.++ ((_ re.loop 1 3) (re.range "0" "9")) (re.opt (re.++ (str.to_re ".") ((_ re.loop 3 3) (re.range "0" "9")))))) (str.to_re "\u{a}")))))
(check-sat)

(exit)
